c This is QMaxSAT 2017 based on 14.07
c This is Glucose 3.0
c This is MiniSat 2.2.0
c WARNING: for repeatability, setting FPU to use double precision
c card = mrwto, comp = 0, pmodel = 0, narr = 35, mct = 76, verb = 0
cr firstCPXsol 0 0 0
c top = 189219
c |  Number of variables:    24200                                            |
c |  Number of clauses:      2065720                                          |
c |  Weight of hard clauses: 189219                                           |
c |  Number of soft clauses: 378000                                           |
c |  Number of unit soft clauses: 0                                           |
c |  Maximum Cardinality (by unit): 12253710     (0           )               |
c last restart ## conflicts  :  3 8616 
o 566 | cpuTime 11.3628 s
c Sum of weights = 350106
c A number of soft clauses remained = 10800
c MRWTO encoding for Pseudo-Boolean Constraints
c sizeMax=566
c No.0 Divisor=9	generated by pow1
c No.1 Divisor=9	generated by pow1
c No.2 Divisor=9	generated by pow1
c p0= 9	p1= 9	p2= 9	
c number of digits = 4
c linkingVar[0].size = 9, linkingVar[1].size = 9, linkingVar[2].size = 7, linkingVar[3].size = 1, 
c Pseudo-Boolean Constraints: 183268 variables and 1300983 clauses
c Sum of weights = 350106
c A number of soft clauses remained = 10800
c MRWTO encoding for Pseudo-Boolean Constraints
c sizeMax=566
c No.0 Divisor=9	generated by pow1
c No.1 Divisor=9	generated by pow1
c No.2 Divisor=9	generated by pow1
c p0= 9	p1= 9	p2= 9	
c number of digits = 4
c linkingVar[0].size = 9, linkingVar[1].size = 9, linkingVar[2].size = 7, linkingVar[3].size = 1, 
c Pseudo-Boolean Constraints: 183268 variables and 1300983 clauses
c Sum of weights = 350106
c A number of soft clauses remained = 10800
c MRWTO encoding for Pseudo-Boolean Constraints
c sizeMax=566
c No.0 Divisor=9	generated by pow1
c No.1 Divisor=9	generated by pow1
c No.2 Divisor=9	generated by pow1
c p0= 9	p1= 9	p2= 9	
c number of digits = 4
c linkingVar[0].size = 9, linkingVar[1].size = 9, linkingVar[2].size = 7, linkingVar[3].size = 1, 
c Pseudo-Boolean Constraints: 183268 variables and 1300983 clauses
c Sum of weights = 350106
c A number of soft clauses remained = 10800
c MRWTO encoding for Pseudo-Boolean Constraints
c sizeMax=566
c No.0 Divisor=9	generated by pow1
c No.1 Divisor=9	generated by pow1
c No.2 Divisor=9	generated by pow1
c p0= 9	p1= 9	p2= 9	
c number of digits = 4
c linkingVar[0].size = 9, linkingVar[1].size = 9, linkingVar[2].size = 7, linkingVar[3].size = 1, 
c Pseudo-Boolean Constraints: 183268 variables and 1300983 clauses
c Sum of weights = 350106
c A number of soft clauses remained = 10800
c MRWTO encoding for Pseudo-Boolean Constraints
c sizeMax=566
c No.0 Divisor=9	generated by pow1
c No.1 Divisor=9	generated by pow1
c No.2 Divisor=9	generated by pow1
c p0= 9	p1= 9	p2= 9	
c number of digits = 4
c linkingVar[0].size = 9, linkingVar[1].size = 9, linkingVar[2].size = 7, linkingVar[3].size = 1, 
c Pseudo-Boolean Constraints: 183268 variables and 1300983 clauses
c Sum of weights = 350106
c A number of soft clauses remained = 10800
c MRWTO encoding for Pseudo-Boolean Constraints
c sizeMax=566
c No.0 Divisor=9	generated by pow1
c No.1 Divisor=9	generated by pow1
c No.2 Divisor=9	generated by pow1
c p0= 9	p1= 9	p2= 9	
c number of digits = 4
c linkingVar[0].size = 9, linkingVar[1].size = 9, linkingVar[2].size = 7, linkingVar[3].size = 1, 
c Pseudo-Boolean Constraints: 183268 variables and 1300983 clauses
c Sum of weights = 350106
c A number of soft clauses remained = 10800
c MRWTO encoding for Pseudo-Boolean Constraints
c sizeMax=566
c No.0 Divisor=9	generated by pow1
c No.1 Divisor=9	generated by pow1
c No.2 Divisor=9	generated by pow1
c p0= 9	p1= 9	p2= 9	
c number of digits = 4
c linkingVar[0].size = 9, linkingVar[1].size = 9, linkingVar[2].size = 7, linkingVar[3].size = 1, 
c Pseudo-Boolean Constraints: 183268 variables and 1300983 clauses
c Sum of weights = 350106
c A number of soft clauses remained = 10800
c MRWTO encoding for Pseudo-Boolean Constraints
c sizeMax=566
c No.0 Divisor=9	generated by pow1
c No.1 Divisor=9	generated by pow1
c No.2 Divisor=9	generated by pow1
c p0= 9	p1= 9	p2= 9	
c number of digits = 4
c linkingVar[0].size = 9, linkingVar[1].size = 9, linkingVar[2].size = 7, linkingVar[3].size = 1, 
c Pseudo-Boolean Constraints: 183268 variables and 1300983 clauses
c Sum of weights = 350106
c A number of soft clauses remained = 10800
c MRWTO encoding for Pseudo-Boolean Constraints
c sizeMax=566
c No.0 Divisor=9	generated by pow1
c No.1 Divisor=9	generated by pow1
c No.2 Divisor=9	generated by pow1
c p0= 9	p1= 9	p2= 9	
c number of digits = 4
c linkingVar[0].size = 9, linkingVar[1].size = 9, linkingVar[2].size = 7, linkingVar[3].size = 1, 
c Pseudo-Boolean Constraints: 183268 variables and 1300983 clauses
c Sum of weights = 350106
c A number of soft clauses remained = 10800
c MRWTO encoding for Pseudo-Boolean Constraints
c sizeMax=566
c No.0 Divisor=9	generated by pow1
c No.1 Divisor=9	generated by pow1
c No.2 Divisor=9	generated by pow1
c p0= 9	p1= 9	p2= 9	
c number of digits = 4
c linkingVar[0].size = 9, linkingVar[1].size = 9, linkingVar[2].size = 7, linkingVar[3].size = 1, 
c Pseudo-Boolean Constraints: 183268 variables and 1300983 clauses
c Sum of weights = 350106
c A number of soft clauses remained = 10800
c MRWTO encoding for Pseudo-Boolean Constraints
c sizeMax=566
c No.0 Divisor=9	generated by pow1
c No.1 Divisor=9	generated by pow1
c No.2 Divisor=9	generated by pow1
c p0= 9	p1= 9	p2= 9	
c number of digits = 4
c linkingVar[0].size = 9, linkingVar[1].size = 9, linkingVar[2].size = 7, linkingVar[3].size = 1, 
c Pseudo-Boolean Constraints: 183268 variables and 1300983 clauses
c Sum of weights = 350106
c A number of soft clauses remained = 10800
c MRWTO encoding for Pseudo-Boolean Constraints
c sizeMax=566
c No.0 Divisor=9	generated by pow1
c No.1 Divisor=9	generated by pow1
c No.2 Divisor=9	generated by pow1
c p0= 9	p1= 9	p2= 9	
c number of digits = 4
c linkingVar[0].size = 9, linkingVar[1].size = 9, linkingVar[2].size = 7, linkingVar[3].size = 1, 
c Pseudo-Boolean Constraints: 183268 variables and 1300983 clauses
c Sum of weights = 350106
c A number of soft clauses remained = 10800
c MRWTO encoding for Pseudo-Boolean Constraints
c sizeMax=566
c No.0 Divisor=9	generated by pow1
c No.1 Divisor=9	generated by pow1
c No.2 Divisor=9	generated by pow1
c p0= 9	p1= 9	p2= 9	
c number of digits = 4
c linkingVar[0].size = 9, linkingVar[1].size = 9, linkingVar[2].size = 7, linkingVar[3].size = 1, 
c Pseudo-Boolean Constraints: 183268 variables and 1300983 clauses
c Sum of weights = 350106
c A number of soft clauses remained = 10800
c MRWTO encoding for Pseudo-Boolean Constraints
c sizeMax=566
c No.0 Divisor=9	generated by pow1
c No.1 Divisor=9	generated by pow1
c No.2 Divisor=9	generated by pow1
c p0= 9	p1= 9	p2= 9	
c number of digits = 4
c linkingVar[0].size = 9, linkingVar[1].size = 9, linkingVar[2].size = 7, linkingVar[3].size = 1, 
c Pseudo-Boolean Constraints: 183268 variables and 1300983 clauses
c Sum of weights = 350106
c A number of soft clauses remained = 10800
c MRWTO encoding for Pseudo-Boolean Constraints
c sizeMax=566
c No.0 Divisor=9	generated by pow1
c No.1 Divisor=9	generated by pow1
c No.2 Divisor=9	generated by pow1
c p0= 9	p1= 9	p2= 9	
c number of digits = 4
c linkingVar[0].size = 9, linkingVar[1].size = 9, linkingVar[2].size = 7, linkingVar[3].size = 1, 
c Pseudo-Boolean Constraints: 183268 variables and 1300983 clauses
c Sum of weights = 350106
c A number of soft clauses remained = 10800
c MRWTO encoding for Pseudo-Boolean Constraints
c sizeMax=566
c No.0 Divisor=9	generated by pow1
c No.1 Divisor=9	generated by pow1
c No.2 Divisor=9	generated by pow1
c p0= 9	p1= 9	p2= 9	
c number of digits = 4
c linkingVar[0].size = 9, linkingVar[1].size = 9, linkingVar[2].size = 7, linkingVar[3].size = 1, 
c Pseudo-Boolean Constraints: 183268 variables and 1300983 clauses
c Sum of weights = 350106
c A number of soft clauses remained = 10800
c MRWTO encoding for Pseudo-Boolean Constraints
c sizeMax=566
c No.0 Divisor=9	generated by pow1
c No.1 Divisor=9	generated by pow1
c No.2 Divisor=9	generated by pow1
c p0= 9	p1= 9	p2= 9	
c number of digits = 4
c linkingVar[0].size = 9, linkingVar[1].size = 9, linkingVar[2].size = 7, linkingVar[3].size = 1, 
c Pseudo-Boolean Constraints: 183268 variables and 1300983 clauses
c Sum of weights = 350106
c A number of soft clauses remained = 10800
c MRWTO encoding for Pseudo-Boolean Constraints
c sizeMax=566
c No.0 Divisor=9	generated by pow1
c No.1 Divisor=9	generated by pow1
c No.2 Divisor=9	generated by pow1
c p0= 9	p1= 9	p2= 9	
c number of digits = 4
c linkingVar[0].size = 9, linkingVar[1].size = 9, linkingVar[2].size = 7, linkingVar[3].size = 1, 
c Pseudo-Boolean Constraints: 183268 variables and 1300983 clauses
c Sum of weights = 350106
c A number of soft clauses remained = 10800
c MRWTO encoding for Pseudo-Boolean Constraints
c sizeMax=566
c No.0 Divisor=9	generated by pow1
c No.1 Divisor=9	generated by pow1
c No.2 Divisor=9	generated by pow1
c p0= 9	p1= 9	p2= 9	
c number of digits = 4
c linkingVar[0].size = 9, linkingVar[1].size = 9, linkingVar[2].size = 7, linkingVar[3].size = 1, 
c Pseudo-Boolean Constraints: 183268 variables and 1300983 clauses
c Sum of weights = 350106
c A number of soft clauses remained = 10800
c MRWTO encoding for Pseudo-Boolean Constraints
c sizeMax=566
c No.0 Divisor=9	generated by pow1
c No.1 Divisor=9	generated by pow1
c No.2 Divisor=9	generated by pow1
c p0= 9	p1= 9	p2= 9	
c number of digits = 4
c linkingVar[0].size = 9, linkingVar[1].size = 9, linkingVar[2].size = 7, linkingVar[3].size = 1, 
c Pseudo-Boolean Constraints: 183268 variables and 1300983 clauses
c Sum of weights = 350106
c A number of soft clauses remained = 10800
c MRWTO encoding for Pseudo-Boolean Constraints
c sizeMax=566
c No.0 Divisor=9	generated by pow1
c No.1 Divisor=9	generated by pow1
c No.2 Divisor=9	generated by pow1
c p0= 9	p1= 9	p2= 9	
c number of digits = 4
c linkingVar[0].size = 9, linkingVar[1].size = 9, linkingVar[2].size = 7, linkingVar[3].size = 1, 
c Pseudo-Boolean Constraints: 183268 variables and 1300983 clauses
c Sum of weights = 350106
c A number of soft clauses remained = 10800
c MRWTO encoding for Pseudo-Boolean Constraints
c sizeMax=566
c No.0 Divisor=9	generated by pow1
c No.1 Divisor=9	generated by pow1
c No.2 Divisor=9	generated by pow1
c p0= 9	p1= 9	p2= 9	
c number of digits = 4
c linkingVar[0].size = 9, linkingVar[1].size = 9, linkingVar[2].size = 7, linkingVar[3].size = 1, 
c Pseudo-Boolean Constraints: 183268 variables and 1300983 clauses
c Sum of weights = 350106
c A number of soft clauses remained = 10800
c MRWTO encoding for Pseudo-Boolean Constraints
c sizeMax=566
c No.0 Divisor=9	generated by pow1
c No.1 Divisor=9	generated by pow1
c No.2 Divisor=9	generated by pow1
c p0= 9	p1= 9	p2= 9	
c number of digits = 4
c linkingVar[0].size = 9, linkingVar[1].size = 9, linkingVar[2].size = 7, linkingVar[3].size = 1, 
c Pseudo-Boolean Constraints: 183268 variables and 1300983 clauses
c Sum of weights = 350106
c A number of soft clauses remained = 10800
c MRWTO encoding for Pseudo-Boolean Constraints
c sizeMax=566
c No.0 Divisor=9	generated by pow1
c No.1 Divisor=9	generated by pow1
c No.2 Divisor=9	generated by pow1
c p0= 9	p1= 9	p2= 9	
c number of digits = 4
c linkingVar[0].size = 9, linkingVar[1].size = 9, linkingVar[2].size = 7, linkingVar[3].size = 1, 
c Pseudo-Boolean Constraints: 183268 variables and 1300983 clauses
c Sum of weights = 350106
c A number of soft clauses remained = 10800
c MRWTO encoding for Pseudo-Boolean Constraints
c sizeMax=566
c No.0 Divisor=9	generated by pow1
c No.1 Divisor=9	generated by pow1
c No.2 Divisor=9	generated by pow1
c p0= 9	p1= 9	p2= 9	
c number of digits = 4
c linkingVar[0].size = 9, linkingVar[1].size = 9, linkingVar[2].size = 7, linkingVar[3].size = 1, 
c Pseudo-Boolean Constraints: 183268 variables and 1300983 clauses
c Sum of weights = 350106
c A number of soft clauses remained = 10800
c MRWTO encoding for Pseudo-Boolean Constraints
c sizeMax=566
c No.0 Divisor=9	generated by pow1
c No.1 Divisor=9	generated by pow1
c No.2 Divisor=9	generated by pow1
c p0= 9	p1= 9	p2= 9	
c number of digits = 4
c linkingVar[0].size = 9, linkingVar[1].size = 9, linkingVar[2].size = 7, linkingVar[3].size = 1, 
c Pseudo-Boolean Constraints: 183268 variables and 1300983 clauses
c Sum of weights = 350106
c A number of soft clauses remained = 10800
c MRWTO encoding for Pseudo-Boolean Constraints
c sizeMax=566
c No.0 Divisor=9	generated by pow1
c No.1 Divisor=9	generated by pow1
c No.2 Divisor=9	generated by pow1
c p0= 9	p1= 9	p2= 9	
c number of digits = 4
c linkingVar[0].size = 9, linkingVar[1].size = 9, linkingVar[2].size = 7, linkingVar[3].size = 1, 
c Pseudo-Boolean Constraints: 183268 variables and 1300983 clauses
c Sum of weights = 350106
c A number of soft clauses remained = 10800
c MRWTO encoding for Pseudo-Boolean Constraints
c sizeMax=566
c No.0 Divisor=9	generated by pow1
c No.1 Divisor=9	generated by pow1
c No.2 Divisor=9	generated by pow1
c p0= 9	p1= 9	p2= 9	
c number of digits = 4
c linkingVar[0].size = 9, linkingVar[1].size = 9, linkingVar[2].size = 7, linkingVar[3].size = 1, 
c Pseudo-Boolean Constraints: 183268 variables and 1300983 clauses
c Sum of weights = 350106
c A number of soft clauses remained = 10800
c MRWTO encoding for Pseudo-Boolean Constraints
c sizeMax=566
c No.0 Divisor=9	generated by pow1
c No.1 Divisor=9	generated by pow1
c No.2 Divisor=9	generated by pow1
c p0= 9	p1= 9	p2= 9	
c number of digits = 4
c linkingVar[0].size = 9, linkingVar[1].size = 9, linkingVar[2].size = 7, linkingVar[3].size = 1, 
c Pseudo-Boolean Constraints: 183268 variables and 1300983 clauses
c Sum of weights = 350106
c A number of soft clauses remained = 10800
c MRWTO encoding for Pseudo-Boolean Constraints
c sizeMax=566
c No.0 Divisor=9	generated by pow1
c No.1 Divisor=9	generated by pow1
c No.2 Divisor=9	generated by pow1
c p0= 9	p1= 9	p2= 9	
c number of digits = 4
c linkingVar[0].size = 9, linkingVar[1].size = 9, linkingVar[2].size = 7, linkingVar[3].size = 1, 
c Pseudo-Boolean Constraints: 183268 variables and 1300983 clauses
c Sum of weights = 350106
c A number of soft clauses remained = 10800
c MRWTO encoding for Pseudo-Boolean Constraints
c sizeMax=566
c No.0 Divisor=9	generated by pow1
c No.1 Divisor=9	generated by pow1
c No.2 Divisor=9	generated by pow1
c p0= 9	p1= 9	p2= 9	
c number of digits = 4
c linkingVar[0].size = 9, linkingVar[1].size = 9, linkingVar[2].size = 7, linkingVar[3].size = 1, 
c Pseudo-Boolean Constraints: 183268 variables and 1300983 clauses
c Sum of weights = 350106
c A number of soft clauses remained = 10800
c MRWTO encoding for Pseudo-Boolean Constraints
c sizeMax=566
c No.0 Divisor=9	generated by pow1
c No.1 Divisor=9	generated by pow1
c No.2 Divisor=9	generated by pow1
c p0= 9	p1= 9	p2= 9	
c number of digits = 4
c linkingVar[0].size = 9, linkingVar[1].size = 9, linkingVar[2].size = 7, linkingVar[3].size = 1, 
c Pseudo-Boolean Constraints: 183268 variables and 1300983 clauses
c Sum of weights = 350106
c A number of soft clauses remained = 10800
c MRWTO encoding for Pseudo-Boolean Constraints
c sizeMax=566
c No.0 Divisor=9	generated by pow1
c No.1 Divisor=9	generated by pow1
c No.2 Divisor=9	generated by pow1
c p0= 9	p1= 9	p2= 9	
c number of digits = 4
c linkingVar[0].size = 9, linkingVar[1].size = 9, linkingVar[2].size = 7, linkingVar[3].size = 1, 
c Pseudo-Boolean Constraints: 183268 variables and 1300983 clauses
c Sum of weights = 350106
c A number of soft clauses remained = 10800
c MRWTO encoding for Pseudo-Boolean Constraints
c sizeMax=566
c No.0 Divisor=9	generated by pow1
c No.1 Divisor=9	generated by pow1
c No.2 Divisor=9	generated by pow1
c p0= 9	p1= 9	p2= 9	
c number of digits = 4
c linkingVar[0].size = 9, linkingVar[1].size = 9, linkingVar[2].size = 7, linkingVar[3].size = 1, 
c Pseudo-Boolean Constraints: 183268 variables and 1300983 clauses
c Sum of weights = 350106
c A number of soft clauses remained = 10800
c MRWTO encoding for Pseudo-Boolean Constraints
c sizeMax=566
c No.0 Divisor=9	generated by pow1
c No.1 Divisor=9	generated by pow1
c No.2 Divisor=9	generated by pow1
c p0= 9	p1= 9	p2= 9	
c number of digits = 4
c linkingVar[0].size = 9, linkingVar[1].size = 9, linkingVar[2].size = 7, linkingVar[3].size = 1, 
c Pseudo-Boolean Constraints: 183268 variables and 1300983 clauses
c last restart ## conflicts  :  226 155115 
o 436 | cpuTime 52.2408 s
c last restart ## conflicts  :  150 79245 
o 283 | cpuTime 74.5662 s
c last restart ## conflicts  :  392 42262 
o 239 | cpuTime 87.7064 s
c last restart ## conflicts  :  267 40328 
o 233 | cpuTime 142.951 s
c last restart ## conflicts  :  393 41800 
o 204 | cpuTime 160.006 s
c last restart ## conflicts  :  352 74025 
o 187 | cpuTime 212.271 s
c last restart ## conflicts  :  290 89173 
o 163 | cpuTime 260.292 s
c last restart ## conflicts  :  257 43070 
o 162 | cpuTime 2534.38 s
c last restart ## conflicts  :  269 73106 
o 152 | cpuTime 2894.26 s
s UNKNOWN
c Search is stopped by a limit (maybe time-limit)
cr positiVarArr: [ | 38(1->4) | 190(1->46) | 297(1->43) | 370(1->6) | 543(1->69) | 592(1->8) | 736(1->42) | 836(1->32) | 949(1->35) | 1092(1->68) | 1156(1->22) | 1258(1->14) | 1377(1->23) | 1480(1->16) | 1626(1->52) | 1715(1->31) | 1839(1->45) | 1980(1->76) | 2044(1->30) | 2188(1->64) | 2258(1->24) | 2380(1->36) | 2472(1->18) | 2579(1->15) | 2685(1->11) | 2825(1->41) | 2950(1->56) | 3023(1->19) | 3180(1->66) | 3284(1->60) | 3359(1->25) | 3488(1->44) | 3593(1->39) | 3713(1->49) | 3802(1->28) | 3945(2->61) | 4056(3->62) | 4117(4->13) | 4251(5->37) | 4296(6->1) | 4446(7->12) | 4603(8->59) | 4648(9->1) | 4829(10->65) | 4852(11->1) | 5001(12->17) | 5061(13->1) | 5184(14->1) | 5311(15->1) | 5416(16->1) | 5511(17->1) | 5653(18->9) | 5808(19->54) | 5921(20->57) | 5976(21->2) | 6073(22->1) | 6193(23->1) | 6279(24->1) | 6461(25->47) | 6572(26->48) | 6634(27->1) | 6735(28->1) | 6859(29->5) | 6997(30->33) | 7072(31->1) | 7187(32->3) | 7280(33->1) | 7411(34->7) | 7586(35->72) | 7614(36->1) | 7754(37->20) | 7826(38->1) | 8009(39->55) | 8060(40->1) | 8153(41->1) | 8271(42->1) | 8377(43->1) | 8489(44->1) | 8602(45->1) | 8734(46->10) | 8897(47->63) | 8925(48->1) | 9088(49->34) | 9138(50->1) | 9314(51->40) | 9413(52->29) | 9464(53->1) | 9575(54->1) | 9781(55->67) | 9793(56->1) | 9961(57->27) | 10082(58->38) | 10205(59->51) | 10334(60->70) | 10369(61->1) | 10557(62->73) | 10567(63->1) | 10672(64->1) | 10872(65->58) | 10977(66->53) | 11035(67->1) | 11194(68->50) | 11329(69->75) | 11435(70->71) | 11548(71->74) | 11560(72->1) | 11678(73->1) | 11825(74->21) | 11907(75->1) | 12050(76->26) | ]
cr the 1-th chain: [ 1->4->13->1 ] (#non-depot=2) {#cumul.=3}
cr the 2-th chain: [ 1->46->10->65->58->38->1 ] (#non-depot=5) {#cumul.=8}
cr the 3-th chain: [ 1->43->1 ] (#non-depot=1) {#cumul.=9}
cr the 4-th chain: [ 1->6->1 ] (#non-depot=1) {#cumul.=10}
cr the 5-th chain: [ 1->69->75->1 ] (#non-depot=2) {#cumul.=12}
cr the 6-th chain: [ 1->8->59->51->40->1 ] (#non-depot=4) {#cumul.=16}
cr the 7-th chain: [ 1->42->1 ] (#non-depot=1) {#cumul.=17}
cr the 8-th chain: [ 1->32->3->62->73->1 ] (#non-depot=4) {#cumul.=21}
cr the 9-th chain: [ 1->35->72->1 ] (#non-depot=2) {#cumul.=23}
cr the 10-th chain: [ 1->68->50->1 ] (#non-depot=2) {#cumul.=25}
cr the 11-th chain: [ 1->22->1 ] (#non-depot=1) {#cumul.=26}
cr the 12-th chain: [ 1->14->1 ] (#non-depot=1) {#cumul.=27}
cr the 13-th chain: [ 1->23->1 ] (#non-depot=1) {#cumul.=28}
cr the 14-th chain: [ 1->16->1 ] (#non-depot=1) {#cumul.=29}
cr the 15-th chain: [ 1->52->29->5->37->20->57->27->1 ] (#non-depot=7) {#cumul.=36}
cr the 16-th chain: [ 1->31->1 ] (#non-depot=1) {#cumul.=37}
cr the 17-th chain: [ 1->45->1 ] (#non-depot=1) {#cumul.=38}
cr the 18-th chain: [ 1->76->26->48->1 ] (#non-depot=3) {#cumul.=41}
cr the 19-th chain: [ 1->30->33->1 ] (#non-depot=2) {#cumul.=43}
cr the 20-th chain: [ 1->64->1 ] (#non-depot=1) {#cumul.=44}
cr the 21-th chain: [ 1->24->1 ] (#non-depot=1) {#cumul.=45}
cr the 22-th chain: [ 1->36->1 ] (#non-depot=1) {#cumul.=46}
cr the 23-th chain: [ 1->18->9->1 ] (#non-depot=2) {#cumul.=48}
cr the 24-th chain: [ 1->15->1 ] (#non-depot=1) {#cumul.=49}
cr the 25-th chain: [ 1->11->1 ] (#non-depot=1) {#cumul.=50}
cr the 26-th chain: [ 1->41->1 ] (#non-depot=1) {#cumul.=51}
cr the 27-th chain: [ 1->56->1 ] (#non-depot=1) {#cumul.=52}
cr the 28-th chain: [ 1->19->54->1 ] (#non-depot=2) {#cumul.=54}
cr the 29-th chain: [ 1->66->53->1 ] (#non-depot=2) {#cumul.=56}
cr the 30-th chain: [ 1->60->70->71->74->21->2->61->1 ] (#non-depot=7) {#cumul.=63}
cr the 31-th chain: [ 1->25->47->63->1 ] (#non-depot=3) {#cumul.=66}
cr the 32-th chain: [ 1->44->1 ] (#non-depot=1) {#cumul.=67}
cr the 33-th chain: [ 1->39->55->67->1 ] (#non-depot=3) {#cumul.=70}
cr the 34-th chain: [ 1->49->34->7->12->17->1 ] (#non-depot=5) {#cumul.=75}
cr the 35-th chain: [ 1->28->1 ] (#non-depot=1) {#cumul.=76}
c Latest Answer = 0 by 10 loops
c restarts              : 11679
c conflicts             : 2574711        (716 /sec)
c decisions             : 164289352      (0.00 % random) (45673 /sec)
c propagations          : 34475182184    (9584297 /sec)
c conflict literals     : 661292398      (25.85 % deleted)
c Memory used           : 6086.00 MB
c CPU time              : 3597.05 s
